70
150
120	1
119	1
117	1
116	1
113	1
112	2
111	3
109	1
108	1
107	1
106	1
105	1
104	1
103	3
101	1
100	4
99	1
98	2
97	1
96	1
95	1
94	1
93	1
92	1
91	2
87	2
86	2
81	1
80	1
79	1
78	1
77	2
76	1
75	1
74	1
71	1
70	1
64	2
63	2
62	2
59	3
56	1
55	1
54	1
53	1
50	1
48	1
47	2
46	2
45	2
43	3
42	2
41	2
40	1
38	3
37	1
36	1
35	1
34	2
33	2
32	1
31	1
29	1
27	1
26	2
23	1
21	1
19	1
18	1
17	1
